/* Objective function */
max: ;

/* Constraints */
R1: +x1 <= 0;
R2: +x3 <= 0;
R3: +x2 <= 0;
0 x1 <= 0;
0 x1 <= 1;
0 x1 >= 1;
R7: +x1 >= 0;
R8: +x3 >= 0;
R9: +x2 >= 0;
R10: +x1 >= 0;
R11: +x2 >= 0;
R12: +x3 >= 0;
